
Gurobi 9.1.2 (linux64) logging started Mon Jul  5 20:59:16 2021


Gurobi 9.1.2 (linux64) logging started Mon Jul  5 20:59:22 2021

Gurobi Optimizer version 9.1.2 build v9.1.2rc0 (linux64)
Thread count: 40 physical cores, 40 logical processors, using up to 32 threads
Optimize a model with 3118434 rows, 1314095 columns and 9410455 nonzeros
Model fingerprint: 0xd263901c
Coefficient statistics:
  Matrix range     [3e-04, 1e+00]
  Objective range  [1e+01, 4e+05]
  Bounds range     [3e-03, 8e+06]
  RHS range        [6e+00, 3e+07]

Concurrent LP optimizer: primal simplex, dual simplex, and barrier
Showing barrier log only...

Presolve removed 2408676 rows and 305522 columns (presolve time = 5s) ...
Presolve removed 2425745 rows and 323110 columns (presolve time = 10s) ...
Presolve removed 2436690 rows and 334872 columns (presolve time = 15s) ...
Presolve removed 2445165 rows and 344318 columns (presolve time = 20s) ...
Presolve removed 2451431 rows and 351329 columns (presolve time = 25s) ...
Presolve removed 2455432 rows and 355983 columns (presolve time = 30s) ...
Presolve removed 2459149 rows and 360214 columns (presolve time = 35s) ...
Presolve removed 2463406 rows and 365020 columns (presolve time = 40s) ...
Presolve removed 2467105 rows and 369353 columns (presolve time = 45s) ...
Presolve removed 2470869 rows and 373557 columns (presolve time = 50s) ...
Presolve removed 2475155 rows and 378371 columns (presolve time = 55s) ...
Presolve removed 2480645 rows and 384488 columns (presolve time = 60s) ...
Presolve removed 2487011 rows and 391517 columns (presolve time = 65s) ...
Presolve removed 2493890 rows and 398985 columns (presolve time = 70s) ...
Presolve removed 2501682 rows and 407399 columns (presolve time = 75s) ...
Presolve removed 2565520 rows and 472104 columns (presolve time = 80s) ...
Presolve removed 2597233 rows and 507639 columns (presolve time = 85s) ...
Presolve removed 2813130 rows and 642345 columns (presolve time = 90s) ...
Presolve removed 2813130 rows and 642345 columns
Presolve time: 91.50s
Presolved: 305304 rows, 882074 columns, 2157794 nonzeros

Ordering time: 0.49s

Barrier statistics:
 AA' NZ     : 1.233e+06
 Factor NZ  : 1.081e+07 (roughly 600 MBytes of memory)
 Factor Ops : 9.350e+08 (less than 1 second per iteration)
 Threads    : 30

                  Objective                Residual
Iter       Primal          Dual         Primal    Dual     Compl     Time
   0   3.04102727e+14 -5.48752913e+12  5.19e+11 4.33e+02  5.65e+09   101s
   1   1.20107690e+14 -5.80285959e+12  1.11e+11 1.15e+02  1.24e+09   109s
   2   2.41562639e+12 -5.60239213e+12  1.20e+09 1.36e-12  1.73e+07   119s
   3   1.30262408e+12 -6.87035151e+11  1.26e+08 1.36e-12  2.34e+06   132s
   4   1.09395242e+12  8.65046117e+10  1.36e+07 1.43e-12  7.04e+05   144s
   5   1.06242041e+12  7.87934814e+11  5.36e+06 2.27e-12  2.08e+05   151s
   6   1.03877386e+12  9.26542153e+11  1.46e+06 2.96e-12  7.86e+04   160s
   7   1.03380887e+12  9.92659300e+11  3.83e+05 2.27e-12  2.75e+04   168s
   8   1.03228690e+12  1.01903683e+12  1.09e+05 2.11e-12  8.77e+03   176s
   9   1.03160191e+12  1.02898194e+12  1.46e+04 2.11e-12  1.67e+03   187s
  10   1.03149798e+12  1.03083560e+12  2.84e+03 2.11e-12  4.11e+02   196s
  11   1.03147249e+12  1.03145357e+12  2.41e+02 2.57e-12  1.26e+01   206s
  12   1.03146955e+12  1.03146684e+12  1.93e+01 1.59e-12  1.62e+00   214s
  13   1.03146877e+12  1.03146828e+12  3.00e+00 1.36e-12  2.86e-01   225s
  14   1.03146863e+12  1.03146853e+12  6.16e-01 1.04e-07  6.12e-02   233s
  15   1.03146861e+12  1.03146857e+12  1.81e-01 6.10e-08  1.89e-02   244s
  16   1.03146860e+12  1.03146858e+12  6.93e-02 4.60e-08  8.48e-03   252s
  17   1.03146860e+12  1.03146859e+12  8.16e-03 2.92e-08  2.52e-03   263s
  18   1.03146859e+12  1.03146859e+12  2.14e-03 1.01e-08  5.09e-04   271s
  19   1.03146859e+12  1.03146859e+12  9.71e-04 3.13e-09  1.28e-04   285s
  20   1.03146859e+12  1.03146859e+12  2.98e-10 4.25e-11  6.68e-07   303s
  21   1.03146859e+12  1.03146859e+12  1.39e-04 9.83e-13  6.68e-10   319s

Barrier solved model in 21 iterations and 319.64 seconds
Optimal objective 1.03146859e+12

Crossover log...

  189600 DPushes remaining with DInf 0.0000000e+00               329s
       0 DPushes remaining with DInf 0.0000000e+00               329s
Warning: Markowitz tolerance tightened to 0.5

  419823 PPushes remaining with PInf 0.0000000e+00               329s
  138877 PPushes remaining with PInf 0.0000000e+00               330s
   84818 PPushes remaining with PInf 0.0000000e+00               335s

Solved with dual simplex
Solved in 108860 iterations and 337.60 seconds
Optimal objective  1.031468595e+12

User-callback calls 405576, time in user-callback 0.19 sec
